certificates/rado_a10_c102_N18.cnf
c Rad2 upper bound instance: x1 + 10*x2 - x3 = 102, interval [1,18]
p cnf 18 64
1 9 11 0
-1 -9 -11 0
2 10 11 0
-2 -10 -11 0
1 3 10 0
-1 -3 -10 0
3 11 0
-3 -11 0
2 4 10 0
-2 -4 -10 0
4 11 12 0
-4 -11 -12 0
3 5 10 0
-3 -5 -10 0
5 11 13 0
-5 -11 -13 0
4 6 10 0
-4 -6 -10 0
6 11 14 0
-6 -11 -14 0
5 7 10 0
-5 -7 -10 0
7 11 15 0
-7 -11 -15 0
6 8 10 0
-6 -8 -10 0
8 11 16 0
-8 -11 -16 0
7 9 10 0
-7 -9 -10 0
9 11 17 0
-9 -11 -17 0
8 10 0
-8 -10 0
10 11 18 0
-10 -11 -18 0
9 10 11 0
-9 -10 -11 0
10 12 0
-10 -12 0
1 9 13 0
-1 -9 -13 0
10 11 13 0
-10 -11 -13 0
2 9 14 0
-2 -9 -14 0
10 12 14 0
-10 -12 -14 0
3 9 15 0
-3 -9 -15 0
10 13 15 0
-10 -13 -15 0
4 9 16 0
-4 -9 -16 0
10 14 16 0
-10 -14 -16 0
5 9 17 0
-5 -9 -17 0
10 15 17 0
-10 -15 -17 0
6 9 18 0
-6 -9 -18 0
10 16 18 0
-10 -16 -18 0
