certificates/rado_a10_c102_N18.drat
-16 -18 0
d -16 -10 -18 0
-10 -18 0
11 -18 0
-18 0
-11 -14 0
-14 0
11 0
-3 0
-10 0
8 0
12 0
16 0
1 0
5 0
0
